p cnf 54 192
-4 -2 0
-4 -3 0
2 3 4 0
4 5 -6 0
-4 -5 -6 0
4 -5 6 0
-4 5 6 0
1 6 -7 0
-1 -6 -7 0
1 -6 7 0
-1 6 7 0
-9 7 0
-9 -8 0
-7 8 9 0
10 -2 0
10 3 0
2 -3 -10 0
12 10 0
12 11 0
-10 -11 -12 0
13 11 0
13 3 0
-11 -3 -13 0
14 -1 0
14 -13 0
1 13 -14 0
15 -12 0
15 -14 0
12 14 -15 0
16 5 0
16 -1 0
-5 1 -16 0
17 15 0
17 16 0
-15 -16 -17 0
10 -4 -18 0
-10 4 -18 0
10 4 18 0
-10 -4 18 0
-19 -10 0
-19 11 0
10 -11 19 0
-21 -20 0
-21 2 0
20 -2 21 0
22 1 0
22 -21 0
-1 21 -22 0
22 5 -23 0
-22 -5 -23 0
22 -5 23 0
-22 5 23 0
-23 10 -24 0
23 -10 -24 0
-23 -10 24 0
23 10 24 0
24 -11 -25 0
-24 11 -25 0
24 11 25 0
-24 -11 25 0
-26 -25 0
-26 -5 0
25 5 26 0
27 -7 0
27 1 0
7 -1 -27 0
-27 3 -28 0
27 -3 -28 0
-27 -3 28 0
27 3 28 0
29 -26 0
29 28 0
26 -28 -29 0
30 19 0
30 -29 0
-19 29 -30 0
-31 -22 0
-31 20 0
22 -20 31 0
32 -3 0
32 -13 0
3 13 -32 0
-33 -31 0
-33 32 0
31 -32 33 0
-1 23 -34 0
1 -23 -34 0
-1 -23 34 0
1 23 34 0
-35 34 0
-35 10 0
-34 -10 35 0
-36 33 0
-36 -35 0
-33 35 36 0
-30 -36 -37 0
30 36 -37 0
-30 36 37 0
30 -36 37 0
-18 37 -38 0
18 -37 -38 0
-18 -37 38 0
18 37 38 0
40 -23 0
40 -39 0
23 39 -40 0
-4 41 -42 0
4 -41 -42 0
-4 -41 42 0
4 41 42 0
-40 -42 -43 0
40 42 -43 0
-40 42 43 0
40 -42 43 0
44 38 0
44 -43 0
-38 43 -44 0
-45 17 0
-45 -44 0
-17 44 45 0
46 23 -47 0
-46 -23 -47 0
46 -23 47 0
-46 23 47 0
-48 -34 0
-48 47 0
34 -47 48 0
-49 5 0
-49 -48 0
-5 48 49 0
-50 -48 0
-50 -25 0
48 25 50 0
-51 -50 0
-51 -27 0
50 27 51 0
-49 -51 -52 0
49 51 -52 0
-49 51 52 0
49 -51 52 0
53 45 0
53 -52 0
-45 52 -53 0
9 53 -54 0
-9 -53 -54 0
9 -53 54 0
-9 53 54 0
3 43 0
-50 -5 0
21 36 18 0
-17 54 -33 0
-45 -54 0
-16 -51 0
-19 8 -47 52 -33 0
37 42 44 0
-34 3 9 5 0
-23 -47 9 -37 -7 45 0
16 34 48 -30 31 0
-20 -50 33 0
41 33 17 31 43 0
41 37 -47 0
8 47 37 34 0
20 1 -46 -41 -28 0
49 29 19 -51 25 53 0
-7 19 -54 -31 -3 -17 0
-39 -8 1 38 0
-20 35 0
-39 9 48 -43 40 0
-20 -34 -44 0
-50 49 -18 -26 42 21 0
5 -38 -47 51 4 0
-30 42 -23 -38 -14 0
32 1 -21 -33 0
45 52 -34 -47 6 0
-50 -51 45 0
36 46 32 0
40 9 4 15 18 -20 0
-38 -8 0
-11 -36 -43 0
-38 -12 23 25 34 14 0
-23 -1 43 33 0
-37 -50 -10 -7 0
4 44 -14 0
-8 -48 44 43 21 0
-17 -44 37 -25 -30 0
33 37 0
-32 31 49 0
-8 43 34 49 0
-10 26 48 0
-28 -9 -8 0
16 35 0
54 0
